2 100
0 40.0 50.0 0.0 0.0 0 240
2 25.0 85.0 10.0 20.0 49 191
3 22.0 75.0 10.0 30.0 30 168
4 22.0 85.0 10.0 10.0 95 152
5 20.0 80.0 10.0 40.0 69 193
6 20.0 85.0 10.0 20.0 40 189
7 18.0 75.0 10.0 20.0 60 159
8 15.0 75.0 10.0 20.0 54 133
9 15.0 80.0 10.0 10.0 67 144
10 10.0 35.0 10.0 20.0 57 154
11 10.0 40.0 10.0 30.0 106 161
12 8.0 40.0 10.0 40.0 33 152
13 8.0 45.0 10.0 20.0 32 148
14 5.0 35.0 10.0 10.0 53 191
15 5.0 45.0 10.0 10.0 35 194
16 2.0 40.0 10.0 20.0 39 163
17 0.0 40.0 10.0 20.0 41 141
18 0.0 45.0 10.0 20.0 51 189
19 44.0 5.0 10.0 20.0 73 130
20 42.0 10.0 10.0 40.0 40 148
21 42.0 15.0 10.0 10.0 94 179
22 40.0 5.0 10.0 10.0 45 161
23 40.0 15.0 10.0 40.0 64 149
24 38.0 5.0 10.0 30.0 45 164
25 38.0 15.0 10.0 10.0 51 194
26 35.0 5.0 10.0 20.0 45 183
27 95.0 30.0 10.0 30.0 90 169
28 95.0 35.0 10.0 20.0 57 172
29 92.0 30.0 10.0 10.0 55 174
30 90.0 35.0 10.0 10.0 52 174
31 88.0 30.0 10.0 10.0 52 147
32 88.0 35.0 10.0 20.0 50 172
33 87.0 30.0 10.0 10.0 61 178
34 85.0 25.0 10.0 10.0 51 178
35 85.0 35.0 10.0 30.0 83 168
36 67.0 85.0 10.0 20.0 57 185
37 65.0 85.0 10.0 40.0 43 186
38 65.0 82.0 10.0 10.0 95 182
39 62.0 80.0 10.0 30.0 38 141
40 60.0 80.0 10.0 10.0 36 193
41 60.0 85.0 10.0 30.0 61 138
42 58.0 75.0 10.0 20.0 49 164
43 55.0 80.0 10.0 10.0 33 180
44 55.0 85.0 10.0 20.0 100 185
45 55.0 82.0 10.0 10.0 35 142
46 20.0 82.0 10.0 10.0 37 192
47 18.0 80.0 10.0 10.0 71 184
48 2.0 45.0 10.0 10.0 38 191
49 42.0 5.0 10.0 10.0 50 184
50 42.0 12.0 10.0 10.0 99 138
51 72.0 35.0 10.0 30.0 83 178
52 55.0 20.0 10.0 19.0 45 150
53 25.0 30.0 10.0 3.0 25 150
54 20.0 50.0 10.0 5.0 68 143
55 55.0 60.0 10.0 16.0 107 200
56 30.0 60.0 10.0 16.0 95 214
57 50.0 35.0 10.0 19.0 91 198
58 30.0 25.0 10.0 23.0 56 165
59 15.0 10.0 10.0 20.0 51 182
60 10.0 20.0 10.0 19.0 42 187
61 15.0 60.0 10.0 17.0 62 203
62 45.0 65.0 10.0 9.0 37 124
63 65.0 35.0 10.0 3.0 29 168
64 65.0 20.0 10.0 6.0 39 190
65 45.0 30.0 10.0 17.0 20 139
66 35.0 40.0 10.0 16.0 11 150
67 41.0 37.0 10.0 16.0 97 198
68 64.0 42.0 10.0 9.0 31 138
69 40.0 60.0 10.0 21.0 101 216
70 31.0 52.0 10.0 27.0 9 139
71 35.0 69.0 10.0 23.0 30 210
72 65.0 55.0 10.0 14.0 30 129
73 63.0 65.0 10.0 8.0 27 202
74 2.0 60.0 10.0 5.0 46 137
75 20.0 20.0 10.0 8.0 71 193
76 5.0 5.0 10.0 16.0 57 165
77 60.0 12.0 10.0 31.0 48 131
78 23.0 3.0 10.0 7.0 49 180
79 8.0 56.0 10.0 27.0 47 162
80 6.0 68.0 10.0 30.0 65 142
81 47.0 47.0 10.0 13.0 93 222
82 49.0 58.0 10.0 10.0 78 123
83 27.0 43.0 10.0 9.0 14 140
84 37.0 31.0 10.0 14.0 19 172
85 57.0 29.0 10.0 18.0 73 148
86 63.0 23.0 10.0 2.0 59 144
87 21.0 24.0 10.0 28.0 63 140
88 12.0 24.0 10.0 13.0 91 118
89 24.0 58.0 10.0 19.0 27 136
90 67.0 5.0 10.0 25.0 52 177
91 37.0 47.0 10.0 6.0 53 148
92 49.0 42.0 10.0 13.0 89 217
93 53.0 43.0 10.0 14.0 14 177
94 61.0 52.0 10.0 3.0 50 208
95 57.0 48.0 10.0 23.0 76 143
96 56.0 37.0 10.0 6.0 20 159
97 55.0 54.0 10.0 26.0 105 188
98 4.0 18.0 10.0 35.0 104 165
99 26.0 52.0 10.0 9.0 14 136
100 26.0 35.0 10.0 15.0 42 141
101 31.0 67.0 10.0 3.0 43 210